num_offers = 30;
num_halls = 10;
start=[44,58,25,26,76,7,75,30,38,3,61,22,86,10,31,24,67,26,27,14,53,8,12,86,51,17,81,9,63,51];
end=[92,91,47,99,83,28,89,58,57,70,94,66,97,67,36,53,100,67,65,55,92,35,91,97,54,49,88,21,84,89];
price=[4415,2354,1590,1911,474,1776,543,1182,1334,1376,1641,3503,606,1403,324,2736,1874,3639,1303,1704,2328,2660,2400,153,249,2389,658,669,1582,748];
requirement=[266,409,919,424,757,770,532,266,849,656,522,447,495,272,921,283,719,661,708,880,503,200,613,238,204,924,344,224,202,223];
capacity=[339,213,563,521,981,703,901,985,311,761];
